NAME : portcgen-25-27
COMMENT : portcgen N=25, seed=27
TYPE : TSP
DIMENSION : 25
EDGE_WEIGHT_TYPE : EUC_2D
NODE_COORD_SECTION
1 -7402 386096
2 17260 -68703
3 -47747 229703
4 122334 200512
5 -58183 115935
6 -16815 -96391
7 -254596 116398
8 -36175 219529
9 70928 125771
10 -15539 104949
11 -184786 -263562
12 -263100 -268297
13 39955 -50854
14 47851 -218827
15 -115297 114686
16 205319 -121933
17 264805 159350
18 201552 -172847
19 69495 251203
20 -261513 214499
21 47558 308499
22 -2792 465260
23 -138165 -164963
24 -7760 378085
25 14900 81088
